c instancia_12  vars=15  clausulas=25  k=2
p cnf 15 25
-12 -8 0
-3 -1 0
8 -1 0
13 1 0
3 2 0
10 -14 0
-14 10 0
-14 -12 0
-12 -13 0
-8 -1 0
11 -13 0
5 7 0
-3 9 0
5 -2 0
-14 10 0
11 7 0
3 7 0
-15 -5 0
12 -7 0
-9 -6 0
2 -11 0
-11 -13 0
-6 11 0
6 12 0
4 -1 0
